NAME: ACTUAL_TOURS/amz2670
TYPE: TOUR
COMMENT: RouteID_66dd5273-d4bf-4ff7-9858-b33eace577c7
DIMENSION: 130
TOUR_SECTION
100
67
44
99
21
104
93
39
117
76
27
75
105
37
111
115
28
55
95
96
63
74
40
103
50
9
121
62
24
116
56
45
8
20
69
54
82
120
118
17
126
79
106
32
101
47
48
30
49
102
98
1
94
107
51
46
35
59
22
26
31
68
7
89
123
125
85
57
10
72
29
14
41
19
64
71
78
36
3
114
109
81
73
38
65
87
97
110
129
34
108
42
127
60
84
122
4
25
52
130
5
16
6
11
61
113
124
77
12
23
33
86
58
92
18
66
128
15
53
91
43
88
80
119
13
112
70
90
2
83
-1
EOF
